(set-logic ALL)
(declare-const limit_VAR Int)
(assert (< 1 limit_VAR))
(assert (< 2 limit_VAR))
(assert (< 3 limit_VAR))
(assert (< 4 limit_VAR))
(assert (< 5 limit_VAR))
(assert (< 6 limit_VAR))
(assert (< 7 limit_VAR))
(assert (< 8 limit_VAR))
(assert (< 9 limit_VAR))
(assert (< 10 limit_VAR))
(assert (< 11 limit_VAR))
(assert (< 12 limit_VAR))
(assert (< 13 limit_VAR))
(assert (< 14 limit_VAR))
(assert (< 15 limit_VAR))
(assert (< 16 limit_VAR))
(assert (< 17 limit_VAR))
(assert (< 18 limit_VAR))
(assert (< 19 limit_VAR))
(assert (< 20 limit_VAR))
(assert (< 21 limit_VAR))
(assert (< 22 limit_VAR))
(assert (< 23 limit_VAR))
(assert (< 24 limit_VAR))
(assert (< 25 limit_VAR))
(assert (< 26 limit_VAR))
(assert (< 27 limit_VAR))
(assert (< 28 limit_VAR))
(assert (< 29 limit_VAR))
(assert (< 30 limit_VAR))
(assert (< 31 limit_VAR))
(assert (< 32 limit_VAR))
(assert (< 33 limit_VAR))
(assert (< 34 limit_VAR))
(assert (< 35 limit_VAR))
(assert (< 36 limit_VAR))
(assert (< 37 limit_VAR))
(assert (< 38 limit_VAR))
(assert (< 39 limit_VAR))
(assert (< 40 limit_VAR))
(assert (< 41 limit_VAR))
(assert (< 42 limit_VAR))
(assert (< 43 limit_VAR))
(assert (< 44 limit_VAR))
(assert (< 45 limit_VAR))
(assert (< 46 limit_VAR))
(assert (< 47 limit_VAR))
(assert (< 48 limit_VAR))
(assert (< 49 limit_VAR))
(assert (< 50 limit_VAR))
(assert (< 51 limit_VAR))
(assert (< 52 limit_VAR))
(assert (< 53 limit_VAR))
(assert (< 54 limit_VAR))
(assert (< 55 limit_VAR))
(assert (< 56 limit_VAR))
(assert (< 57 limit_VAR))
(assert (< 58 limit_VAR))
(assert (< 59 limit_VAR))
(assert (< 60 limit_VAR))
(assert (< 61 limit_VAR))
(assert (< 62 limit_VAR))
(assert (< 63 limit_VAR))
(assert (< 64 limit_VAR))
(assert (< 65 limit_VAR))
(assert (< 66 limit_VAR))
(assert (< 67 limit_VAR))
(assert (< 68 limit_VAR))
(assert (< 69 limit_VAR))
(assert (< 70 limit_VAR))
(assert (< 71 limit_VAR))
(assert (< 72 limit_VAR))
(assert (< 73 limit_VAR))
(assert (< 74 limit_VAR))
(assert (< 75 limit_VAR))
(assert (< 76 limit_VAR))
(assert (< 77 limit_VAR))
(assert (< 78 limit_VAR))
(assert (< 79 limit_VAR))
(assert (< 80 limit_VAR))
(assert (< 81 limit_VAR))
(assert (< 82 limit_VAR))
(assert (< 83 limit_VAR))
(assert (< 84 limit_VAR))
(assert (< 85 limit_VAR))
(assert (< 86 limit_VAR))
(assert (< 87 limit_VAR))
(assert (< 88 limit_VAR))
(assert (< 89 limit_VAR))
(assert (< 90 limit_VAR))
(assert (< 91 limit_VAR))
(assert (< 92 limit_VAR))
(assert (< 93 limit_VAR))
(assert (< 94 limit_VAR))
(assert (< 95 limit_VAR))
(assert (< 96 limit_VAR))
(assert (< 97 limit_VAR))
(assert (< 98 limit_VAR))
(assert (< 99 limit_VAR))
(assert (< 100 limit_VAR))
(assert (< 101 limit_VAR))
(assert (< 102 limit_VAR))
(assert (< 103 limit_VAR))
(assert (< 104 limit_VAR))
(assert (< 105 limit_VAR))
(assert (< 106 limit_VAR))
(assert (< 107 limit_VAR))
(assert (< 108 limit_VAR))
(assert (< 109 limit_VAR))
(assert (< 110 limit_VAR))
(assert (< 111 limit_VAR))
(assert (< 112 limit_VAR))
(assert (< 113 limit_VAR))
(assert (< 114 limit_VAR))
(assert (< 115 limit_VAR))
(assert (< 116 limit_VAR))
(assert (< 117 limit_VAR))
(assert (< 118 limit_VAR))
(assert (< 119 limit_VAR))
(assert (< 120 limit_VAR))
(assert (< 121 limit_VAR))
(assert (< 122 limit_VAR))
(assert (< 123 limit_VAR))
(assert (< 124 limit_VAR))
(assert (< 125 limit_VAR))
(assert (< 126 limit_VAR))
(assert (< 127 limit_VAR))
(assert (< 128 limit_VAR))
(assert (< 129 limit_VAR))
(assert (< 130 limit_VAR))
(assert (< 131 limit_VAR))
(assert (< 132 limit_VAR))
(assert (< 133 limit_VAR))
(assert (< 134 limit_VAR))
(assert (< 135 limit_VAR))
(assert (< 136 limit_VAR))
(assert (< 137 limit_VAR))
(assert (< 138 limit_VAR))
(assert (< 139 limit_VAR))
(assert (< 140 limit_VAR))
(assert (< 141 limit_VAR))
(assert (< 142 limit_VAR))
(assert (< 143 limit_VAR))
(assert (< 144 limit_VAR))
(assert (< 145 limit_VAR))
(assert (< 146 limit_VAR))
(assert (< 147 limit_VAR))
(assert (< 148 limit_VAR))
(assert (< 149 limit_VAR))
(assert (< 150 limit_VAR))
(assert (< 151 limit_VAR))
(assert (< 152 limit_VAR))
(assert (< 153 limit_VAR))
(assert (< 154 limit_VAR))
(assert (< 155 limit_VAR))
(assert (< 156 limit_VAR))
(assert (< 157 limit_VAR))
(assert (< 158 limit_VAR))
(assert (< 159 limit_VAR))
(assert (< 160 limit_VAR))
(assert (< 161 limit_VAR))
(assert (< 162 limit_VAR))
(assert (< 163 limit_VAR))
(assert (< 164 limit_VAR))
(assert (< 165 limit_VAR))
(assert (< 166 limit_VAR))
(assert (< 167 limit_VAR))
(assert (< 168 limit_VAR))
(assert (< 169 limit_VAR))
(assert (< 170 limit_VAR))
(assert (< 171 limit_VAR))
(assert (< 172 limit_VAR))
(assert (< 173 limit_VAR))
(assert (< 174 limit_VAR))
(assert (< 175 limit_VAR))
(assert (< 176 limit_VAR))
(assert (< 177 limit_VAR))
(assert (< 178 limit_VAR))
(assert (< 179 limit_VAR))
(assert (< 180 limit_VAR))
(assert (< 181 limit_VAR))
(assert (< 182 limit_VAR))
(assert (< 183 limit_VAR))
(assert (< 184 limit_VAR))
(assert (< 185 limit_VAR))
(assert (< 186 limit_VAR))
(assert (< 187 limit_VAR))
(assert (< 188 limit_VAR))
(assert (< 189 limit_VAR))
(assert (< 190 limit_VAR))
(assert (< 191 limit_VAR))
(assert (< 192 limit_VAR))
(assert (< 193 limit_VAR))
(assert (< 194 limit_VAR))
(assert (< 195 limit_VAR))
(assert (< 196 limit_VAR))
(assert (< 197 limit_VAR))
(check-sat)
(get-value (limit_VAR))
